NAME          
ROWS
 N  OBJ
 L  c2
 L  c3
 L  c4
 L  c5
 L  c6
 L  c7
 L  c8
 L  c9
 L  c10
 L  c11
 G  c1
COLUMNS
    ss[1]     c1        1
    ss[1]     OBJ       1000
    s[1]      c2        1
    s[1]      OBJ       -1000
    s[2]      c3        1
    s[2]      OBJ       -1000
    s[3]      c4        1
    s[3]      OBJ       -1000
    s[4]      c5        1
    s[4]      OBJ       -1000
    s[5]      c6        1
    s[5]      OBJ       -1000
    s[6]      c7        1
    s[6]      OBJ       -1000
    s[7]      c8        1
    s[7]      OBJ       -1000
    s[8]      c9        1
    s[8]      OBJ       -1000
    s[9]      c10       1
    s[9]      OBJ       -1000
    s[10]     c11       1
    s[10]     OBJ       -1000
    MARKER    'MARKER'                 'INTORG'
    x[1]      c2        478
    x[1]      c3        598
    x[1]      c4        7
    x[1]      c5        518
    x[1]      c6        821
    x[1]      c7        830
    x[1]      c8        2
    x[1]      c9        872
    x[1]      c10       957
    x[1]      c11       383
    x[1]      c1        556
    x[1]      OBJ       -865
    x[2]      c2        209
    x[2]      c3        280
    x[2]      c4        60
    x[2]      c5        448
    x[2]      c6        390
    x[2]      c7        72
    x[2]      c8        281
    x[2]      c9        394
    x[2]      c10       893
    x[2]      c11       363
    x[2]      c1        736
    x[2]      OBJ       -457
    x[3]      c2        549
    x[3]      c3        441
    x[3]      c4        644
    x[3]      c5        516
    x[3]      c6        11
    x[3]      c7        961
    x[3]      c8        882
    x[3]      c9        735
    x[3]      c10       975
    x[3]      c11       611
    x[3]      c1        301
    x[3]      OBJ       -1219
    x[4]      c2        155
    x[4]      c3        103
    x[4]      c4        944
    x[4]      c5        406
    x[4]      c6        542
    x[4]      c7        289
    x[4]      c8        914
    x[4]      c9        740
    x[4]      c10       742
    x[4]      c11       279
    x[4]      c1        111
    x[4]      OBJ       -1128
    x[5]      c2        805
    x[5]      c3        594
    x[5]      c4        50
    x[5]      c5        727
    x[5]      c6        279
    x[5]      c7        882
    x[5]      c8        652
    x[5]      c9        91
    x[5]      c10       687
    x[5]      c11       531
    x[5]      c1        704
    x[5]      OBJ       -822
    x[6]      c2        64
    x[6]      c3        278
    x[6]      c4        492
    x[6]      c5        939
    x[6]      c6        386
    x[6]      c7        131
    x[6]      c8        659
    x[6]      c9        21
    x[6]      c10       732
    x[6]      c11       739
    x[6]      c1        408
    x[6]      OBJ       -1018
    x[7]      c2        528
    x[7]      c3        272
    x[7]      c4        580
    x[7]      c5        575
    x[7]      c6        694
    x[7]      c7        723
    x[7]      c8        733
    x[7]      c9        272
    x[7]      c10       916
    x[7]      c11       303
    x[7]      c1        163
    x[7]      OBJ       -1356
    x[8]      c2        904
    x[8]      c3        703
    x[8]      c4        209
    x[8]      c5        82
    x[8]      c6        586
    x[8]      c7        265
    x[8]      c8        553
    x[8]      c9        518
    x[8]      c10       790
    x[8]      c11       183
    x[8]      c1        315
    x[8]      OBJ       -1020
    x[9]      c2        832
    x[9]      c3        781
    x[9]      c4        353
    x[9]      c5        628
    x[9]      c6        377
    x[9]      c7        467
    x[9]      c8        693
    x[9]      c9        886
    x[9]      c10       232
    x[9]      c11       910
    x[9]      c1        670
    x[9]      OBJ       -1034
    x[10]     c2        14
    x[10]     c3        701
    x[10]     c4        323
    x[10]     c5        78
    x[10]     c6        757
    x[10]     c7        613
    x[10]     c8        747
    x[10]     c9        540
    x[10]     c10       150
    x[10]     c11       102
    x[10]     c1        457
    x[10]     OBJ       -626
    x[11]     c2        606
    x[11]     c3        338
    x[11]     c4        308
    x[11]     c5        950
    x[11]     c6        234
    x[11]     c7        307
    x[11]     c8        997
    x[11]     c9        452
    x[11]     c10       942
    x[11]     c11       481
    x[11]     c1        357
    x[11]     OBJ       -1259
    x[12]     c2        436
    x[12]     c3        273
    x[12]     c4        875
    x[12]     c5        135
    x[12]     c6        691
    x[12]     c7        896
    x[12]     c8        535
    x[12]     c9        964
    x[12]     c10       643
    x[12]     c11       30
    x[12]     c1        916
    x[12]     OBJ       -676
    x[13]     c2        221
    x[13]     c3        821
    x[13]     c4        780
    x[13]     c5        510
    x[13]     c6        491
    x[13]     c7        427
    x[13]     c8        701
    x[13]     c9        319
    x[13]     c10       908
    x[13]     c11       496
    x[13]     c1        614
    x[13]     OBJ       -1020
    x[14]     c2        937
    x[14]     c3        798
    x[14]     c4        324
    x[14]     c5        481
    x[14]     c6        710
    x[14]     c7        424
    x[14]     c8        170
    x[14]     c9        7
    x[14]     c10       593
    x[14]     c11       53
    x[14]     c1        60
    x[14]     OBJ       -1124
    x[15]     c2        477
    x[15]     c3        801
    x[15]     c4        178
    x[15]     c5        671
    x[15]     c6        171
    x[15]     c7        38
    x[15]     c8        236
    x[15]     c9        958
    x[15]     c10       363
    x[15]     c11       862
    x[15]     c1        373
    x[15]     OBJ       -1087
    x[16]     c2        646
    x[16]     c3        376
    x[16]     c4        479
    x[16]     c5        359
    x[16]     c6        80
    x[16]     c7        320
    x[16]     c8        921
    x[16]     c9        350
    x[16]     c10       238
    x[16]     c11       782
    x[16]     c1        182
    x[16]     OBJ       -1265
    x[17]     c2        472
    x[17]     c3        712
    x[17]     c4        226
    x[17]     c5        436
    x[17]     c6        183
    x[17]     c7        228
    x[17]     c8        130
    x[17]     c9        976
    x[17]     c10       97
    x[17]     c11       555
    x[17]     c1        129
    x[17]     OBJ       -990
    x[18]     c2        708
    x[18]     c3        164
    x[18]     c4        637
    x[18]     c5        575
    x[18]     c6        28
    x[18]     c7        333
    x[18]     c8        428
    x[18]     c9        1
    x[18]     c10       517
    x[18]     c11       807
    x[18]     c1        767
    x[18]     OBJ       -338
    x[19]     c2        678
    x[19]     c3        937
    x[19]     c4        251
    x[19]     c5        916
    x[19]     c6        315
    x[19]     c7        234
    x[19]     c8        553
    x[19]     c9        851
    x[19]     c10       913
    x[19]     c11       377
    x[19]     c1        896
    x[19]     OBJ       -528
    x[20]     c2        633
    x[20]     c3        602
    x[20]     c4        870
    x[20]     c5        89
    x[20]     c6        457
    x[20]     c7        222
    x[20]     c8        520
    x[20]     c9        652
    x[20]     c10       709
    x[20]     c11       203
    x[20]     c1        178
    x[20]     OBJ       -1100
    x[21]     c2        7
    x[21]     c3        156
    x[21]     c4        392
    x[21]     c5        999
    x[21]     c6        331
    x[21]     c7        687
    x[21]     c8        633
    x[21]     c9        802
    x[21]     c10       119
    x[21]     c11       572
    x[21]     c1        975
    x[21]     OBJ       -197
    x[22]     c2        110
    x[22]     c3        114
    x[22]     c4        1000
    x[22]     c5        15
    x[22]     c6        751
    x[22]     c7        783
    x[22]     c8        941
    x[22]     c9        136
    x[22]     c10       382
    x[22]     c11       926
    x[22]     c1        226
    x[22]     OBJ       -1284
    x[23]     c2        435
    x[23]     c3        220
    x[23]     c4        782
    x[23]     c5        245
    x[23]     c6        992
    x[23]     c7        350
    x[23]     c8        440
    x[23]     c9        685
    x[23]     c10       625
    x[23]     c11       908
    x[23]     c1        404
    x[23]     OBJ       -1273
    x[24]     c2        929
    x[24]     c3        343
    x[24]     c4        652
    x[24]     c5        891
    x[24]     c6        706
    x[24]     c7        960
    x[24]     c8        959
    x[24]     c9        89
    x[24]     c10       851
    x[24]     c11       739
    x[24]     c1        833
    x[24]     OBJ       -872
    x[25]     c2        925
    x[25]     c3        749
    x[25]     c4        371
    x[25]     c5        713
    x[25]     c6        238
    x[25]     c7        472
    x[25]     c8        349
    x[25]     c9        14
    x[25]     c10       233
    x[25]     c11       692
    x[25]     c1        575
    x[25]     OBJ       -570
    x[26]     c2        584
    x[26]     c3        713
    x[26]     c4        929
    x[26]     c5        470
    x[26]     c6        758
    x[26]     c7        196
    x[26]     c8        318
    x[26]     c9        935
    x[26]     c10       988
    x[26]     c11       808
    x[26]     c1        340
    x[26]     OBJ       -1029
    x[27]     c2        556
    x[27]     c3        121
    x[27]     c4        274
    x[27]     c5        469
    x[27]     c6        309
    x[27]     c7        202
    x[27]     c8        153
    x[27]     c9        387
    x[27]     c10       624
    x[27]     c11       489
    x[27]     c1        321
    x[27]     OBJ       -744
    x[28]     c2        795
    x[28]     c3        240
    x[28]     c4        693
    x[28]     c5        654
    x[28]     c6        606
    x[28]     c7        592
    x[28]     c8        529
    x[28]     c9        678
    x[28]     c10       354
    x[28]     c11       804
    x[28]     c1        580
    x[28]     OBJ       -1072
    x[29]     c2        435
    x[29]     c3        21
    x[29]     c4        919
    x[29]     c5        489
    x[29]     c6        389
    x[29]     c7        231
    x[29]     c8        601
    x[29]     c9        915
    x[29]     c10       708
    x[29]     c11       915
    x[29]     c1        425
    x[29]     OBJ       -856
    x[30]     c2        73
    x[30]     c3        26
    x[30]     c4        12
    x[30]     c5        826
    x[30]     c6        952
    x[30]     c7        255
    x[30]     c8        122
    x[30]     c9        243
    x[30]     c10       476
    x[30]     c11       70
    x[30]     c1        955
    x[30]     OBJ       -284
    x[31]     c2        934
    x[31]     c3        580
    x[31]     c4        737
    x[31]     c5        582
    x[31]     c6        393
    x[31]     c7        789
    x[31]     c8        145
    x[31]     c9        322
    x[31]     c10       793
    x[31]     c11       540
    x[31]     c1        739
    x[31]     OBJ       -917
    x[32]     c2        534
    x[32]     c3        760
    x[32]     c4        321
    x[32]     c5        451
    x[32]     c6        958
    x[32]     c7        461
    x[32]     c8        820
    x[32]     c9        916
    x[32]     c10       569
    x[32]     c11       456
    x[32]     c1        473
    x[32]     OBJ       -952
    x[33]     c2        355
    x[33]     c3        29
    x[33]     c4        758
    x[33]     c5        887
    x[33]     c6        867
    x[33]     c7        544
    x[33]     c8        101
    x[33]     c9        783
    x[33]     c10       642
    x[33]     c11       273
    x[33]     c1        946
    x[33]     OBJ       -270
    x[34]     c2        954
    x[34]     c3        295
    x[34]     c4        707
    x[34]     c5        559
    x[34]     c6        923
    x[34]     c7        71
    x[34]     c8        660
    x[34]     c9        32
    x[34]     c10       620
    x[34]     c11       727
    x[34]     c1        666
    x[34]     OBJ       -764
    x[35]     c2        834
    x[35]     c3        516
    x[35]     c4        122
    x[35]     c5        613
    x[35]     c6        97
    x[35]     c7        954
    x[35]     c8        867
    x[35]     c9        818
    x[35]     c10       436
    x[35]     c11       681
    x[35]     c1        630
    x[35]     OBJ       -1030
    x[36]     c2        347
    x[36]     c3        707
    x[36]     c4        383
    x[36]     c5        441
    x[36]     c6        678
    x[36]     c7        622
    x[36]     c8        928
    x[36]     c9        943
    x[36]     c10       701
    x[36]     c11       666
    x[36]     c1        462
    x[36]     OBJ       -915
    x[37]     c2        730
    x[37]     c3        429
    x[37]     c4        775
    x[37]     c5        591
    x[37]     c6        114
    x[37]     c7        29
    x[37]     c8        923
    x[37]     c9        654
    x[37]     c10       214
    x[37]     c11       579
    x[37]     c1        841
    x[37]     OBJ       -639
    x[38]     c2        872
    x[38]     c3        209
    x[38]     c4        538
    x[38]     c5        314
    x[38]     c6        542
    x[38]     c7        61
    x[38]     c8        52
    x[38]     c9        457
    x[38]     c10       49
    x[38]     c11       658
    x[38]     c1        2
    x[38]     OBJ       -1203
    x[39]     c2        407
    x[39]     c3        375
    x[39]     c4        111
    x[39]     c5        78
    x[39]     c6        518
    x[39]     c7        618
    x[39]     c8        533
    x[39]     c9        257
    x[39]     c10       261
    x[39]     c11       740
    x[39]     c1        778
    x[39]     OBJ       -683
    x[40]     c2        789
    x[40]     c3        112
    x[40]     c4        170
    x[40]     c5        564
    x[40]     c6        867
    x[40]     c7        790
    x[40]     c8        550
    x[40]     c9        322
    x[40]     c10       481
    x[40]     c11       542
    x[40]     c1        714
    x[40]     OBJ       -579
    x[41]     c2        968
    x[41]     c3        397
    x[41]     c4        500
    x[41]     c5        120
    x[41]     c6        92
    x[41]     c7        208
    x[41]     c8        750
    x[41]     c9        315
    x[41]     c10       909
    x[41]     c11       927
    x[41]     c1        855
    x[41]     OBJ       -416
    x[42]     c2        924
    x[42]     c3        809
    x[42]     c4        740
    x[42]     c5        463
    x[42]     c6        519
    x[42]     c7        48
    x[42]     c8        525
    x[42]     c9        426
    x[42]     c10       705
    x[42]     c11       989
    x[42]     c1        768
    x[42]     OBJ       -563
    x[43]     c2        519
    x[43]     c3        782
    x[43]     c4        995
    x[43]     c5        190
    x[43]     c6        199
    x[43]     c7        552
    x[43]     c8        98
    x[43]     c9        520
    x[43]     c10       724
    x[43]     c11       636
    x[43]     c1        141
    x[43]     OBJ       -1070
    x[44]     c2        945
    x[44]     c3        712
    x[44]     c4        630
    x[44]     c5        388
    x[44]     c6        496
    x[44]     c7        687
    x[44]     c8        600
    x[44]     c9        743
    x[44]     c10       365
    x[44]     c11       26
    x[44]     c1        847
    x[44]     OBJ       -631
    x[45]     c2        704
    x[45]     c3        306
    x[45]     c4        210
    x[45]     c5        674
    x[45]     c6        792
    x[45]     c7        723
    x[45]     c8        271
    x[45]     c9        273
    x[45]     c10       409
    x[45]     c11       985
    x[45]     c1        325
    x[45]     OBJ       -1077
    x[46]     c2        997
    x[46]     c3        529
    x[46]     c4        697
    x[46]     c5        426
    x[46]     c6        932
    x[46]     c7        552
    x[46]     c8        624
    x[46]     c9        901
    x[46]     c10       880
    x[46]     c11       249
    x[46]     c1        765
    x[46]     OBJ       -745
    x[47]     c2        866
    x[47]     c3        375
    x[47]     c4        200
    x[47]     c5        498
    x[47]     c6        141
    x[47]     c7        783
    x[47]     c8        794
    x[47]     c9        855
    x[47]     c10       480
    x[47]     c11       823
    x[47]     c1        10
    x[47]     OBJ       -1608
    x[48]     c2        380
    x[48]     c3        212
    x[48]     c4        688
    x[48]     c5        859
    x[48]     c6        393
    x[48]     c7        942
    x[48]     c8        69
    x[48]     c9        956
    x[48]     c10       944
    x[48]     c11       645
    x[48]     c1        162
    x[48]     OBJ       -1367
    x[49]     c2        248
    x[49]     c3        335
    x[49]     c4        542
    x[49]     c5        665
    x[49]     c6        517
    x[49]     c7        924
    x[49]     c8        368
    x[49]     c9        368
    x[49]     c10       276
    x[49]     c11       257
    x[49]     c1        208
    x[49]     OBJ       -1093
    x[50]     c2        96
    x[50]     c3        510
    x[50]     c4        654
    x[50]     c5        15
    x[50]     c6        282
    x[50]     c7        348
    x[50]     c8        134
    x[50]     c9        510
    x[50]     c10       603
    x[50]     c11       617
    x[50]     c1        981
    x[50]     OBJ       -527
    x[51]     c2        476
    x[51]     c3        662
    x[51]     c4        668
    x[51]     c5        443
    x[51]     c6        96
    x[51]     c7        300
    x[51]     c8        963
    x[51]     c9        777
    x[51]     c10       851
    x[51]     c11       685
    x[51]     c1        638
    x[51]     OBJ       -723
    x[52]     c2        7
    x[52]     c3        16
    x[52]     c4        57
    x[52]     c5        916
    x[52]     c6        813
    x[52]     c7        586
    x[52]     c8        641
    x[52]     c9        972
    x[52]     c10       518
    x[52]     c11       235
    x[52]     c1        184
    x[52]     OBJ       -1071
    x[53]     c2        752
    x[53]     c3        457
    x[53]     c4        820
    x[53]     c5        299
    x[53]     c6        576
    x[53]     c7        577
    x[53]     c8        68
    x[53]     c9        752
    x[53]     c10       70
    x[53]     c11       595
    x[53]     c1        124
    x[53]     OBJ       -1116
    x[54]     c2        565
    x[54]     c3        699
    x[54]     c4        315
    x[54]     c5        779
    x[54]     c6        238
    x[54]     c7        380
    x[54]     c8        952
    x[54]     c9        463
    x[54]     c10       381
    x[54]     c11       607
    x[54]     c1        910
    x[54]     OBJ       -370
    x[55]     c2        799
    x[55]     c3        123
    x[55]     c4        946
    x[55]     c5        158
    x[55]     c6        900
    x[55]     c7        378
    x[55]     c8        270
    x[55]     c9        518
    x[55]     c10       243
    x[55]     c11       780
    x[55]     c1        332
    x[55]     OBJ       -877
    x[56]     c2        827
    x[56]     c3        393
    x[56]     c4        17
    x[56]     c5        804
    x[56]     c6        326
    x[56]     c7        876
    x[56]     c8        597
    x[56]     c9        155
    x[56]     c10       447
    x[56]     c11       582
    x[56]     c1        634
    x[56]     OBJ       -594
    x[57]     c2        99
    x[57]     c3        160
    x[57]     c4        695
    x[57]     c5        211
    x[57]     c6        973
    x[57]     c7        79
    x[57]     c8        277
    x[57]     c9        343
    x[57]     c10       479
    x[57]     c11       740
    x[57]     c1        555
    x[57]     OBJ       -663
    x[58]     c2        769
    x[58]     c3        710
    x[58]     c4        354
    x[58]     c5        567
    x[58]     c6        863
    x[58]     c7        678
    x[58]     c8        7
    x[58]     c9        499
    x[58]     c10       421
    x[58]     c11       853
    x[58]     c1        55
    x[58]     OBJ       -1180
    x[59]     c2        9
    x[59]     c3        90
    x[59]     c4        47
    x[59]     c5        572
    x[59]     c6        923
    x[59]     c7        585
    x[59]     c8        666
    x[59]     c9        837
    x[59]     c10       590
    x[59]     c11       894
    x[59]     c1        396
    x[59]     OBJ       -938
    x[60]     c2        228
    x[60]     c3        896
    x[60]     c4        99
    x[60]     c5        602
    x[60]     c6        477
    x[60]     c7        980
    x[60]     c8        508
    x[60]     c9        206
    x[60]     c10       245
    x[60]     c11       612
    x[60]     c1        23
    x[60]     OBJ       -1374
    x[61]     c2        590
    x[61]     c3        246
    x[61]     c4        47
    x[61]     c5        620
    x[61]     c6        39
    x[61]     c7        170
    x[61]     c8        179
    x[61]     c9        707
    x[61]     c10       644
    x[61]     c11       724
    x[61]     c1        171
    x[61]     OBJ       -881
    x[62]     c2        786
    x[62]     c3        409
    x[62]     c4        541
    x[62]     c5        127
    x[62]     c6        329
    x[62]     c7        266
    x[62]     c8        83
    x[62]     c9        468
    x[62]     c10       988
    x[62]     c11       899
    x[62]     c1        310
    x[62]     OBJ       -960
    x[63]     c2        355
    x[63]     c3        877
    x[63]     c4        939
    x[63]     c5        222
    x[63]     c6        761
    x[63]     c7        470
    x[63]     c8        425
    x[63]     c9        494
    x[63]     c10       555
    x[63]     c11       676
    x[63]     c1        181
    x[63]     OBJ       -1332
    x[64]     c2        263
    x[64]     c3        475
    x[64]     c4        933
    x[64]     c5        317
    x[64]     c6        792
    x[64]     c7        426
    x[64]     c8        681
    x[64]     c9        998
    x[64]     c10       771
    x[64]     c11       371
    x[64]     c1        378
    x[64]     OBJ       -1189
    x[65]     c2        955
    x[65]     c3        674
    x[65]     c4        965
    x[65]     c5        893
    x[65]     c6        208
    x[65]     c7        987
    x[65]     c8        653
    x[65]     c9        30
    x[65]     c10       634
    x[65]     c11       833
    x[65]     c1        600
    x[65]     OBJ       -1161
    x[66]     c2        590
    x[66]     c3        1
    x[66]     c4        500
    x[66]     c5        943
    x[66]     c6        288
    x[66]     c7        716
    x[66]     c8        788
    x[66]     c9        746
    x[66]     c10       47
    x[66]     c11       526
    x[66]     c1        742
    x[66]     OBJ       -762
    x[67]     c2        255
    x[67]     c3        274
    x[67]     c4        92
    x[67]     c5        951
    x[67]     c6        835
    x[67]     c7        385
    x[67]     c8        989
    x[67]     c9        401
    x[67]     c10       72
    x[67]     c11       240
    x[67]     c1        275
    x[67]     OBJ       -1180
    x[68]     c2        604
    x[68]     c3        584
    x[68]     c4        396
    x[68]     c5        450
    x[68]     c6        580
    x[68]     c7        175
    x[68]     c8        993
    x[68]     c9        715
    x[68]     c10       813
    x[68]     c11       885
    x[68]     c1        601
    x[68]     OBJ       -817
    x[69]     c2        989
    x[69]     c3        450
    x[69]     c4        192
    x[69]     c5        855
    x[69]     c6        479
    x[69]     c7        381
    x[69]     c8        649
    x[69]     c9        964
    x[69]     c10       891
    x[69]     c11       797
    x[69]     c1        951
    x[69]     OBJ       -732
    x[70]     c2        723
    x[70]     c3        94
    x[70]     c4        497
    x[70]     c5        136
    x[70]     c6        80
    x[70]     c7        508
    x[70]     c8        929
    x[70]     c9        322
    x[70]     c10       457
    x[70]     c11       162
    x[70]     c1        731
    x[70]     OBJ       -463
    x[71]     c2        191
    x[71]     c3        915
    x[71]     c4        185
    x[71]     c5        927
    x[71]     c6        973
    x[71]     c7        370
    x[71]     c8        952
    x[71]     c9        273
    x[71]     c10       487
    x[71]     c11       269
    x[71]     c1        166
    x[71]     OBJ       -1494
    x[72]     c2        258
    x[72]     c3        841
    x[72]     c4        41
    x[72]     c5        234
    x[72]     c6        40
    x[72]     c7        279
    x[72]     c8        492
    x[72]     c9        952
    x[72]     c10       196
    x[72]     c11       700
    x[72]     c1        659
    x[72]     OBJ       -692
    x[73]     c2        664
    x[73]     c3        25
    x[73]     c4        262
    x[73]     c5        974
    x[73]     c6        645
    x[73]     c7        790
    x[73]     c8        643
    x[73]     c9        638
    x[73]     c10       875
    x[73]     c11       381
    x[73]     c1        15
    x[73]     OBJ       -1559
    x[74]     c2        37
    x[74]     c3        599
    x[74]     c4        196
    x[74]     c5        93
    x[74]     c6        542
    x[74]     c7        503
    x[74]     c8        203
    x[74]     c9        882
    x[74]     c10       317
    x[74]     c11       413
    x[74]     c1        230
    x[74]     OBJ       -989
    x[75]     c2        805
    x[75]     c3        377
    x[75]     c4        180
    x[75]     c5        555
    x[75]     c6        197
    x[75]     c7        145
    x[75]     c8        773
    x[75]     c9        933
    x[75]     c10       552
    x[75]     c11       136
    x[75]     c1        577
    x[75]     OBJ       -552
    x[76]     c2        836
    x[76]     c3        934
    x[76]     c4        781
    x[76]     c5        69
    x[76]     c6        423
    x[76]     c7        967
    x[76]     c8        715
    x[76]     c9        674
    x[76]     c10       215
    x[76]     c11       923
    x[76]     c1        807
    x[76]     OBJ       -920
    x[77]     c2        552
    x[77]     c3        270
    x[77]     c4        562
    x[77]     c5        651
    x[77]     c6        349
    x[77]     c7        54
    x[77]     c8        512
    x[77]     c9        284
    x[77]     c10       521
    x[77]     c11       889
    x[77]     c1        420
    x[77]     OBJ       -945
    x[78]     c2        792
    x[78]     c3        634
    x[78]     c4        773
    x[78]     c5        817
    x[78]     c6        534
    x[78]     c7        724
    x[78]     c8        25
    x[78]     c9        765
    x[78]     c10       599
    x[78]     c11       772
    x[78]     c1        862
    x[78]     OBJ       -798
    x[79]     c2        86
    x[79]     c3        752
    x[79]     c4        917
    x[79]     c5        990
    x[79]     c6        722
    x[79]     c7        798
    x[79]     c8        698
    x[79]     c9        436
    x[79]     c10       324
    x[79]     c11       147
    x[79]     c1        974
    x[79]     OBJ       -559
    x[80]     c2        935
    x[80]     c3        669
    x[80]     c4        798
    x[80]     c5        658
    x[80]     c6        907
    x[80]     c7        622
    x[80]     c8        432
    x[80]     c9        264
    x[80]     c10       704
    x[80]     c11       74
    x[80]     c1        991
    x[80]     OBJ       -710
    x[81]     c2        711
    x[81]     c3        704
    x[81]     c4        63
    x[81]     c5        758
    x[81]     c6        503
    x[81]     c7        25
    x[81]     c8        775
    x[81]     c9        812
    x[81]     c10       591
    x[81]     c11       137
    x[81]     c1        795
    x[81]     OBJ       -750
    x[82]     c2        868
    x[82]     c3        838
    x[82]     c4        813
    x[82]     c5        324
    x[82]     c6        235
    x[82]     c7        278
    x[82]     c8        234
    x[82]     c9        476
    x[82]     c10       16
    x[82]     c11       258
    x[82]     c1        938
    x[82]     OBJ       -190
    x[83]     c2        373
    x[83]     c3        953
    x[83]     c4        837
    x[83]     c5        149
    x[83]     c6        604
    x[83]     c7        319
    x[83]     c8        154
    x[83]     c9        582
    x[83]     c10       999
    x[83]     c11       246
    x[83]     c1        792
    x[83]     OBJ       -625
    x[84]     c2        9
    x[84]     c3        970
    x[84]     c4        575
    x[84]     c5        361
    x[84]     c6        18
    x[84]     c7        93
    x[84]     c8        360
    x[84]     c9        434
    x[84]     c10       931
    x[84]     c11       527
    x[84]     c1        647
    x[84]     OBJ       -738
    x[85]     c2        635
    x[85]     c3        467
    x[85]     c4        288
    x[85]     c5        747
    x[85]     c6        531
    x[85]     c7        629
    x[85]     c8        28
    x[85]     c9        437
    x[85]     c10       880
    x[85]     c11       94
    x[85]     c1        59
    x[85]     OBJ       -1343
    x[86]     c2        641
    x[86]     c3        329
    x[86]     c4        43
    x[86]     c5        338
    x[86]     c6        969
    x[86]     c7        236
    x[86]     c8        268
    x[86]     c9        558
    x[86]     c10       923
    x[86]     c11       413
    x[86]     c1        991
    x[86]     OBJ       -425
    x[87]     c2        441
    x[87]     c3        787
    x[87]     c4        465
    x[87]     c5        405
    x[87]     c6        906
    x[87]     c7        203
    x[87]     c8        205
    x[87]     c9        795
    x[87]     c10       995
    x[87]     c11       452
    x[87]     c1        759
    x[87]     OBJ       -821
    x[88]     c2        305
    x[88]     c3        54
    x[88]     c4        280
    x[88]     c5        374
    x[88]     c6        954
    x[88]     c7        70
    x[88]     c8        98
    x[88]     c9        881
    x[88]     c10       223
    x[88]     c11       485
    x[88]     c1        627
    x[88]     OBJ       -624
    x[89]     c2        669
    x[89]     c3        516
    x[89]     c4        773
    x[89]     c5        916
    x[89]     c6        277
    x[89]     c7        410
    x[89]     c8        420
    x[89]     c9        242
    x[89]     c10       563
    x[89]     c11       212
    x[89]     c1        328
    x[89]     OBJ       -1119
    x[90]     c2        647
    x[90]     c3        561
    x[90]     c4        951
    x[90]     c5        57
    x[90]     c6        602
    x[90]     c7        441
    x[90]     c8        416
    x[90]     c9        909
    x[90]     c10       82
    x[90]     c11       630
    x[90]     c1        902
    x[90]     OBJ       -355
    x[91]     c2        686
    x[91]     c3        358
    x[91]     c4        987
    x[91]     c5        525
    x[91]     c6        342
    x[91]     c7        905
    x[91]     c8        846
    x[91]     c9        68
    x[91]     c10       372
    x[91]     c11       822
    x[91]     c1        629
    x[91]     OBJ       -843
    x[92]     c2        640
    x[92]     c3        433
    x[92]     c4        523
    x[92]     c5        358
    x[92]     c6        91
    x[92]     c7        655
    x[92]     c8        292
    x[92]     c9        539
    x[92]     c10       290
    x[92]     c11       662
    x[92]     c1        510
    x[92]     OBJ       -767
    x[93]     c2        625
    x[93]     c3        715
    x[93]     c4        445
    x[93]     c5        840
    x[93]     c6        877
    x[93]     c7        452
    x[93]     c8        304
    x[93]     c9        879
    x[93]     c10       764
    x[93]     c11       881
    x[93]     c1        103
    x[93]     OBJ       -1537
    x[94]     c2        615
    x[94]     c3        11
    x[94]     c4        208
    x[94]     c5        182
    x[94]     c6        786
    x[94]     c7        924
    x[94]     c8        90
    x[94]     c9        465
    x[94]     c10       568
    x[94]     c11       731
    x[94]     c1        788
    x[94]     OBJ       -588
    x[95]     c2        165
    x[95]     c3        860
    x[95]     c4        47
    x[95]     c5        827
    x[95]     c6        434
    x[95]     c7        730
    x[95]     c8        512
    x[95]     c9        651
    x[95]     c10       792
    x[95]     c11       58
    x[95]     c1        73
    x[95]     OBJ       -1254
    x[96]     c2        491
    x[96]     c3        888
    x[96]     c4        553
    x[96]     c5        406
    x[96]     c6        737
    x[96]     c7        355
    x[96]     c8        833
    x[96]     c9        114
    x[96]     c10       247
    x[96]     c11       743
    x[96]     c1        379
    x[96]     OBJ       -1113
    x[97]     c2        934
    x[97]     c3        613
    x[97]     c4        662
    x[97]     c5        583
    x[97]     c6        132
    x[97]     c7        681
    x[97]     c8        705
    x[97]     c9        253
    x[97]     c10       317
    x[97]     c11       791
    x[97]     c1        573
    x[97]     OBJ       -876
    x[98]     c2        6
    x[98]     c3        949
    x[98]     c4        606
    x[98]     c5        335
    x[98]     c6        204
    x[98]     c7        664
    x[98]     c8        977
    x[98]     c9        993
    x[98]     c10       493
    x[98]     c11       287
    x[98]     c1        783
    x[98]     OBJ       -767
    x[99]     c2        34
    x[99]     c3        296
    x[99]     c4        411
    x[99]     c5        32
    x[99]     c6        750
    x[99]     c7        950
    x[99]     c8        255
    x[99]     c9        483
    x[99]     c10       714
    x[99]     c11       97
    x[99]     c1        310
    x[99]     OBJ       -998
    x[100]    c2        717
    x[100]    c3        300
    x[100]    c4        200
    x[100]    c5        793
    x[100]    c6        390
    x[100]    c7        212
    x[100]    c8        525
    x[100]    c9        657
    x[100]    c10       574
    x[100]    c11       56
    x[100]    c1        38
    x[100]    OBJ       -1348
RHS
    rhs       c2        13653
    rhs       c3        12041
    rhs       c4        12159
    rhs       c5        12833
    rhs       c6        12701
    rhs       c7        12121
    rhs       c8        12806
    rhs       c9        13888
    rhs       c10       13915
    rhs       c11       13493
    rhs       c1        1283
RANGES
BOUNDS
 LO bounds    ss[1]     0
 PL bounds    ss[1]
 MI bounds    s[1]
 UP bounds    s[1]      0
 MI bounds    s[2]
 UP bounds    s[2]      0
 MI bounds    s[3]
 UP bounds    s[3]      0
 MI bounds    s[4]
 UP bounds    s[4]      0
 MI bounds    s[5]
 UP bounds    s[5]      0
 MI bounds    s[6]
 UP bounds    s[6]      0
 MI bounds    s[7]
 UP bounds    s[7]      0
 MI bounds    s[8]
 UP bounds    s[8]      0
 MI bounds    s[9]
 UP bounds    s[9]      0
 MI bounds    s[10]
 UP bounds    s[10]     0
 BV bounds    x[1]
 BV bounds    x[2]
 BV bounds    x[3]
 BV bounds    x[4]
 BV bounds    x[5]
 BV bounds    x[6]
 BV bounds    x[7]
 BV bounds    x[8]
 BV bounds    x[9]
 BV bounds    x[10]
 BV bounds    x[11]
 BV bounds    x[12]
 BV bounds    x[13]
 BV bounds    x[14]
 BV bounds    x[15]
 BV bounds    x[16]
 BV bounds    x[17]
 BV bounds    x[18]
 BV bounds    x[19]
 BV bounds    x[20]
 BV bounds    x[21]
 BV bounds    x[22]
 BV bounds    x[23]
 BV bounds    x[24]
 BV bounds    x[25]
 BV bounds    x[26]
 BV bounds    x[27]
 BV bounds    x[28]
 BV bounds    x[29]
 BV bounds    x[30]
 BV bounds    x[31]
 BV bounds    x[32]
 BV bounds    x[33]
 BV bounds    x[34]
 BV bounds    x[35]
 BV bounds    x[36]
 BV bounds    x[37]
 BV bounds    x[38]
 BV bounds    x[39]
 BV bounds    x[40]
 BV bounds    x[41]
 BV bounds    x[42]
 BV bounds    x[43]
 BV bounds    x[44]
 BV bounds    x[45]
 BV bounds    x[46]
 BV bounds    x[47]
 BV bounds    x[48]
 BV bounds    x[49]
 BV bounds    x[50]
 BV bounds    x[51]
 BV bounds    x[52]
 BV bounds    x[53]
 BV bounds    x[54]
 BV bounds    x[55]
 BV bounds    x[56]
 BV bounds    x[57]
 BV bounds    x[58]
 BV bounds    x[59]
 BV bounds    x[60]
 BV bounds    x[61]
 BV bounds    x[62]
 BV bounds    x[63]
 BV bounds    x[64]
 BV bounds    x[65]
 BV bounds    x[66]
 BV bounds    x[67]
 BV bounds    x[68]
 BV bounds    x[69]
 BV bounds    x[70]
 BV bounds    x[71]
 BV bounds    x[72]
 BV bounds    x[73]
 BV bounds    x[74]
 BV bounds    x[75]
 BV bounds    x[76]
 BV bounds    x[77]
 BV bounds    x[78]
 BV bounds    x[79]
 BV bounds    x[80]
 BV bounds    x[81]
 BV bounds    x[82]
 BV bounds    x[83]
 BV bounds    x[84]
 BV bounds    x[85]
 BV bounds    x[86]
 BV bounds    x[87]
 BV bounds    x[88]
 BV bounds    x[89]
 BV bounds    x[90]
 BV bounds    x[91]
 BV bounds    x[92]
 BV bounds    x[93]
 BV bounds    x[94]
 BV bounds    x[95]
 BV bounds    x[96]
 BV bounds    x[97]
 BV bounds    x[98]
 BV bounds    x[99]
 BV bounds    x[100]
ENDATA
